(set-info :status unsat)
(declare-const symbol_203 (_ BitVec 32))
(declare-const symbol_140 (_ BitVec 32))
(declare-const symbol_71 (_ BitVec 32))
(declare-const symbol_55 (_ BitVec 32))
(declare-const symbol_155 (_ BitVec 32))
(declare-const symbol_68 (_ BitVec 32))
(declare-const symbol_222 (_ BitVec 32))
(declare-const symbol_163 (_ BitVec 32))
(declare-const symbol_35 (_ BitVec 32))
(declare-const symbol_25 (_ BitVec 32))
(declare-const symbol_226 (_ BitVec 32))
(declare-const symbol_227 (_ BitVec 32))
(declare-const symbol_197 (_ BitVec 32))
(declare-const symbol_175 (_ BitVec 32))
(declare-const symbol_144 (_ BitVec 32))
(declare-const symbol_134 (_ BitVec 32))
(declare-const symbol_27 (_ BitVec 32))
(declare-const symbol_91 (_ BitVec 32))
(declare-const symbol_153 (_ BitVec 32))
(declare-const symbol_149 (_ BitVec 32))
(declare-const symbol_109 (_ BitVec 32))
(declare-const symbol_58 (_ BitVec 32))
(declare-const symbol_17 (_ BitVec 32))
(declare-const symbol_193 (_ BitVec 32))
(declare-const symbol_115 (_ BitVec 32))
(declare-const symbol_33 (_ BitVec 32))
(declare-const symbol_224 (_ BitVec 32))
(declare-const symbol_209 (_ BitVec 32))
(declare-const symbol_178 (_ BitVec 32))
(declare-const symbol_54 (_ BitVec 32))
(declare-const symbol_132 (_ BitVec 32))
(declare-const symbol_113 (_ BitVec 32))
(declare-const symbol_49 (_ BitVec 32))
(declare-const symbol_182 (_ BitVec 32))
(declare-const symbol_167 (_ BitVec 32))
(declare-const symbol_130 (_ BitVec 32))
(declare-const symbol_171 (_ BitVec 32))
(declare-const symbol_157 (_ BitVec 32))
(declare-const symbol_85 (_ BitVec 32))
(declare-const symbol_220 (_ BitVec 32))
(declare-const symbol_128 (_ BitVec 32))
(declare-const symbol_77 (_ BitVec 32))
(declare-const symbol_4 (_ BitVec 32))
(declare-const symbol_205 (_ BitVec 32))
(declare-const symbol_29 (_ BitVec 32))
(declare-const symbol_23 (_ BitVec 32))
(declare-const symbol_15 (_ BitVec 32))
(declare-const symbol_0 (_ BitVec 32))
(declare-const symbol_184 (_ BitVec 32))
(declare-const symbol_9 (_ BitVec 32))
(declare-const symbol_161 (_ BitVec 32))
(declare-const symbol_229 (_ BitVec 32))
(declare-const symbol_188 (_ BitVec 32))
(declare-const symbol_103 (_ BitVec 32))
(declare-const symbol_64 (_ BitVec 32))
(declare-const symbol_231 (_ BitVec 32))
(declare-const symbol_11 (_ BitVec 32))
(declare-const symbol_123 (_ BitVec 32))
(declare-const symbol_95 (_ BitVec 32))
(declare-const symbol_145 (_ BitVec 32))
(declare-const symbol_126 (_ BitVec 32))
(declare-const symbol_117 (_ BitVec 32))
(declare-const symbol_46 (_ BitVec 32))
(declare-const symbol_38 (_ BitVec 32))
(declare-const symbol_105 (_ BitVec 32))
(declare-const symbol_74 (_ BitVec 32))
(declare-const symbol_207 (_ BitVec 32))
(declare-const symbol_72 (_ BitVec 32))
(declare-const symbol_41 (_ BitVec 32))
(declare-const symbol_191 (_ BitVec 32))
(declare-const symbol_83 (_ BitVec 32))
(declare-const symbol_79 (_ BitVec 32))
(declare-const symbol_62 (_ BitVec 32))
(declare-const symbol_173 (_ BitVec 32))
(declare-const symbol_97 (_ BitVec 32))
(declare-const symbol_147 (_ BitVec 32))
(declare-const symbol_66 (_ BitVec 32))
(declare-const symbol_211 (_ BitVec 32))
(declare-const symbol_180 (_ BitVec 32))
(declare-const symbol_169 (_ BitVec 32))
(declare-const symbol_136 (_ BitVec 32))
(declare-const symbol_111 (_ BitVec 32))
(declare-const symbol_37 (_ BitVec 32))
(declare-const symbol_21 (_ BitVec 32))
(declare-const symbol_19 (_ BitVec 32))
(declare-const symbol_88 (_ BitVec 32))
(declare-const symbol_43 (_ BitVec 32))
(declare-const symbol_218 (_ BitVec 32))
(declare-const symbol_99 (_ BitVec 32))
(declare-const symbol_93 (_ BitVec 32))
(declare-const symbol_2 (_ BitVec 32))
(declare-const symbol_107 (_ BitVec 32))
(declare-const symbol_101 (_ BitVec 32))
(declare-const symbol_51 (_ BitVec 32))
(declare-const symbol_199 (_ BitVec 32))
(declare-const symbol_151 (_ BitVec 32))
(declare-const symbol_142 (_ BitVec 32))
(declare-const symbol_124 (_ BitVec 32))
(declare-const symbol_31 (_ BitVec 32))
(declare-const symbol_217 (_ BitVec 32))
(declare-const symbol_186 (_ BitVec 32))
(declare-const symbol_121 (_ BitVec 32))
(declare-const symbol_13 (_ BitVec 32))
(declare-const symbol_7 (_ BitVec 32))
(declare-const symbol_59 (_ BitVec 32))
(declare-const symbol_165 (_ BitVec 32))
(declare-const symbol_159 (_ BitVec 32))
(declare-const symbol_138 (_ BitVec 32))
(declare-const symbol_195 (_ BitVec 32))
(declare-const symbol_119 (_ BitVec 32))
(declare-const symbol_215 (_ BitVec 32))
(declare-const symbol_81 (_ BitVec 32))
(declare-const symbol_5 (_ BitVec 32))
(declare-const symbol_87 (_ BitVec 32))
(declare-const symbol_213 (_ BitVec 32))
(declare-const symbol_201 (_ BitVec 32))
(declare-const symbol_48 (_ BitVec 32))
(assert (= symbol_231 (_ bv3 32)))
(assert (not (not (= symbol_231 (_ bv1 32)))))
(assert (not (not (= symbol_229 (_ bv1 32)))))
(assert (not (not (= symbol_227 (_ bv1 32)))))
(assert (not (not (= symbol_226 (_ bv1 32)))))
(assert (not (not (= symbol_224 (_ bv1 32)))))
(assert (not (not (= symbol_222 (_ bv1 32)))))
(assert (not (not (= symbol_220 (_ bv1 32)))))
(assert (not (not (= symbol_218 (_ bv1 32)))))
(assert (not (not (= symbol_217 (_ bv1 32)))))
(assert (not (not (= symbol_215 (_ bv1 32)))))
(assert (not (not (= symbol_213 (_ bv1 32)))))
(assert (not (not (= symbol_211 (_ bv1 32)))))
(assert (not (not (= symbol_209 (_ bv1 32)))))
(assert (not (not (= symbol_207 (_ bv1 32)))))
(assert (not (not (= symbol_205 (_ bv1 32)))))
(assert (not (not (= symbol_203 (_ bv1 32)))))
(assert (not (not (= symbol_201 (_ bv1 32)))))
(assert (not (not (= symbol_199 (_ bv1 32)))))
(assert (not (not (= symbol_197 (_ bv1 32)))))
(assert (not (not (= symbol_195 (_ bv1 32)))))
(assert (not (not (= symbol_193 (_ bv1 32)))))
(assert (not (not (= symbol_191 (_ bv1 32)))))
(assert (not (not (= symbol_188 (_ bv1 32)))))
(assert (not (not (= symbol_186 (_ bv1 32)))))
(assert (not (not (= symbol_184 (_ bv1 32)))))
(assert (not (not (= symbol_182 (_ bv1 32)))))
(assert (not (not (= symbol_180 (_ bv1 32)))))
(assert (not (not (= symbol_178 (_ bv1 32)))))
(assert (not (not (= symbol_175 (_ bv1 32)))))
(assert (not (not (= symbol_173 (_ bv1 32)))))
(assert (not (not (= symbol_171 (_ bv1 32)))))
(assert (not (not (= symbol_169 (_ bv1 32)))))
(assert (not (not (= symbol_167 (_ bv1 32)))))
(assert (not (not (= symbol_165 (_ bv1 32)))))
(assert (not (not (= symbol_163 (_ bv1 32)))))
(assert (not (not (= symbol_161 (_ bv1 32)))))
(assert (not (not (= symbol_159 (_ bv1 32)))))
(assert (not (not (= symbol_157 (_ bv1 32)))))
(assert (not (not (= symbol_155 (_ bv1 32)))))
(assert (not (not (= symbol_153 (_ bv1 32)))))
(assert (not (not (= symbol_151 (_ bv1 32)))))
(assert (not (not (= symbol_149 (_ bv1 32)))))
(assert (not (not (= symbol_147 (_ bv1 32)))))
(assert (not (not (= symbol_145 (_ bv1 32)))))
(assert (not (not (= symbol_144 (_ bv1 32)))))
(assert (not (not (= symbol_142 (_ bv1 32)))))
(assert (not (not (= symbol_140 (_ bv1 32)))))
(assert (not (not (= symbol_138 (_ bv1 32)))))
(assert (not (not (= symbol_136 (_ bv1 32)))))
(assert (not (not (= symbol_134 (_ bv1 32)))))
(assert (not (not (= symbol_132 (_ bv1 32)))))
(assert (not (not (= symbol_130 (_ bv1 32)))))
(assert (not (not (= symbol_128 (_ bv1 32)))))
(assert (not (not (= symbol_126 (_ bv1 32)))))
(assert (not (not (= symbol_124 (_ bv1 32)))))
(assert (not (not (= symbol_123 (_ bv1 32)))))
(assert (not (not (= symbol_121 (_ bv1 32)))))
(assert (not (not (= symbol_119 (_ bv1 32)))))
(assert (not (not (= symbol_117 (_ bv1 32)))))
(assert (not (not (= symbol_115 (_ bv1 32)))))
(assert (not (not (= symbol_113 (_ bv1 32)))))
(assert (not (not (= symbol_111 (_ bv1 32)))))
(assert (not (not (= symbol_109 (_ bv1 32)))))
(assert (not (not (= symbol_107 (_ bv1 32)))))
(assert (not (not (= symbol_105 (_ bv1 32)))))
(assert (not (not (= symbol_103 (_ bv1 32)))))
(assert (not (not (= symbol_101 (_ bv1 32)))))
(assert (not (not (= symbol_99 (_ bv1 32)))))
(assert (not (not (= symbol_97 (_ bv1 32)))))
(assert (not (not (= symbol_95 (_ bv1 32)))))
(assert (not (not (= symbol_93 (_ bv1 32)))))
(assert (not (not (= symbol_91 (_ bv1 32)))))
(assert (not (not (= symbol_88 (_ bv1 32)))))
(assert (not (not (= symbol_87 (_ bv1 32)))))
(assert (not (not (= symbol_85 (_ bv1 32)))))
(assert (not (not (= symbol_83 (_ bv1 32)))))
(assert (not (not (= symbol_81 (_ bv1 32)))))
(assert (not (not (= symbol_79 (_ bv1 32)))))
(assert (not (not (= symbol_77 (_ bv1 32)))))
(assert (not (not (= symbol_74 (_ bv1 32)))))
(assert (not (not (= symbol_72 (_ bv1 32)))))
(assert (not (not (= symbol_71 (_ bv1 32)))))
(assert (not (not (= symbol_68 (_ bv1 32)))))
(assert (not (not (= symbol_66 (_ bv1 32)))))
(assert (not (not (= symbol_64 (_ bv1 32)))))
(assert (not (not (= symbol_62 (_ bv1 32)))))
(assert (not (not (= symbol_59 (_ bv1 32)))))
(assert (not (not (= symbol_58 (_ bv1 32)))))
(assert (not (not (= symbol_55 (_ bv1 32)))))
(assert (not (not (= symbol_54 (_ bv1 32)))))
(assert (not (not (= symbol_51 (_ bv1 32)))))
(assert (not (not (= symbol_49 (_ bv1 32)))))
(assert (not (not (= symbol_48 (_ bv1 32)))))
(assert (not (not (= symbol_46 (_ bv1 32)))))
(assert (not (not (= symbol_43 (_ bv1 32)))))
(assert (not (not (= symbol_41 (_ bv1 32)))))
(assert (not (not (= symbol_38 (_ bv1 32)))))
(assert (not (not (= symbol_37 (_ bv1 32)))))
(assert (not (not (= symbol_35 (_ bv1 32)))))
(assert (not (not (= symbol_33 (_ bv1 32)))))
(assert (not (not (= symbol_31 (_ bv1 32)))))
(assert (not (not (= symbol_29 (_ bv1 32)))))
(assert (not (not (= symbol_27 (_ bv1 32)))))
(assert (not (not (= symbol_25 (_ bv1 32)))))
(assert (not (not (= symbol_23 (_ bv1 32)))))
(assert (not (not (= symbol_21 (_ bv1 32)))))
(assert (not (not (= symbol_19 (_ bv1 32)))))
(assert (not (not (= symbol_17 (_ bv1 32)))))
(assert (not (not (= symbol_15 (_ bv1 32)))))
(assert (not (not (= symbol_13 (_ bv1 32)))))
(assert (not (not (= symbol_11 (_ bv1 32)))))
(assert (not (not (= symbol_9 (_ bv1 32)))))
(assert (not (not (= symbol_7 (_ bv1 32)))))
(assert (not (not (= symbol_5 (_ bv1 32)))))
(assert (not (not (= symbol_4 (_ bv1 32)))))
(assert (not (not (= symbol_2 (_ bv1 32)))))
(assert (not (not (= symbol_0 (_ bv8 32)))))
(assert (not (= symbol_0 (_ bv1 32))))
(check-sat)